47321.22,58.42,70.85
50818.89,54.4,65.97
47370.26,58.36,70.77
41917.59,65.95,79.98
44541.33,62.07,75.27
47098.87,58.7,71.18
42213.51,65.49,79.42
63085.64,43.82,53.15
48620.23,56.86,68.96
48011.84,57.58,69.83
46467.53,59.5,72.15
50541.54,54.7,66.33
51542.39,53.64,65.05
43030.75,64.25,77.91
50426.42,54.82,66.49
48740.56,56.72,68.78
51408.01,53.78,65.22
55420.71,49.88,60.49
53518.19,51.66,62.64
51146.99,54.05,65.55
